NAME:12_HardATSPLIB_12
TYPE: ATSP
DIMENSION: 12
EDGE_WEIGHT_TYPE: EXPLICIT
EDGE_WEIGHT_FORMAT: FULL_MATRIX
EDGE_WEIGHT_SECTION
0	19	43	28	14	0	10	10	6	6	6	4
9	0	28	9	19	9	19	19	14	14	14	13
9	0	0	9	19	9	14	19	14	14	14	13
24	19	19	0	38	0	14	14	14	18	22	24
14	9	33	14	0	14	0	4	4	8	12	14
24	43	43	52	38	0	34	34	29	29	29	28
14	9	37	18	28	14	0	4	4	8	12	14
10	9	37	18	24	10	0	0	0	4	8	10
10	13	41	22	24	10	4	4	0	4	8	10
6	13	41	22	20	6	4	4	0	0	4	6
2	13	41	22	16	2	4	4	0	0	0	2
0	14	43	24	14	0	6	6	2	2	2	0
